Version identifier: 22.1.0.0 | 2022-03-09 | 1a383f8ce
CPXPARAM_Read_DataCheck                          1
1 of 1 MIP starts provided solutions.
MIP start 'm1' defined initial solution with objective 74.0000.
Tried aggregator 4 times.
MIP Presolve eliminated 167164 rows and 13272 columns.
MIP Presolve modified 1633 coefficients.
Aggregator did 157352 substitutions.
Reduced MIP has 13745 rows, 159564 columns, and 333186 nonzeros.
Reduced MIP has 159518 binaries, 46 generals, 0 SOSs, and 0 indicators.
Presolve time = 2.41 sec. (2496.92 ticks)
Tried aggregator 1 time.
Detecting symmetries...
Reduced MIP has 13745 rows, 159564 columns, and 333186 nonzeros.
Reduced MIP has 159518 binaries, 46 generals, 0 SOSs, and 0 indicators.
Presolve time = 0.42 sec. (266.60 ticks)
Probing fixed 69 vars, tightened 0 bounds.
Probing time = 0.68 sec. (69.28 ticks)
Clique table members: 322207.
MIP emphasis: balance optimality and feasibility.
MIP search method: dynamic search.
Parallel mode: deterministic, using up to 8 threads.
Root relaxation solution time = 1.56 sec. (1092.13 ticks)

        Nodes                                         Cuts/
   Node  Left     Objective  IInf  Best Integer    Best Bound    ItCnt     Gap

*     0+    0                           74.0000        0.0000           100.00%
      0     0       46.3920 10355       74.0000       46.3920       27   37.31%
      0     0        cutoff             74.0000                     55    0.00%
Elapsed time = 24.37 sec. (22480.23 ticks, tree = 0.01 MB, solutions = 1)

Gomory fractional cuts applied:  28

Root node processing (before b&c):
  Real time             =   24.38 sec. (22491.28 ticks)
Parallel b&c, 8 threads:
  Real time             =    0.00 sec. (0.00 ticks)
  Sync time (average)   =    0.00 sec.
  Wait time (average)   =    0.00 sec.
                          ------------
Total (root+branch&cut) =   24.38 sec. (22491.28 ticks)
